NAME : X-n237-k14
COMMENT : "Generated by Uchoa, Pecin, Pessoa, Poggi, Subramanian, and Vidal (2013)"
TYPE : CVRP
DIMENSION : 237
EDGE_WEIGHT_TYPE : EUC_2D
CAPACITY : 18
NODE_COORD_SECTION
1 0 0
2 80 386
3 521 652
4 597 936
5 836 69
6 503 987
7 618 169
8 115 662
9 312 175
10 78 83
11 364 317
12 12 454
13 980 537
14 403 383
15 144 443
16 739 464
17 886 511
18 904 106
19 794 539
20 821 608
21 781 347
22 336 490
23 101 736
24 365 68
25 618 684
26 282 286
27 311 806
28 557 793
29 54 50
30 651 264
31 619 661
32 156 994
33 950 369
34 183 707
35 673 856
36 5 651
37 867 449
38 946 914
39 75 82
40 522 8
41 573 493
42 833 699
43 881 677
44 201 77
45 536 593
46 67 895
47 99 113
48 120 133
49 428 231
50 701 845
51 190 508
52 431 218
53 626 782
54 113 914
55 569 117
56 865 639
57 708 9
58 511 977
59 104 838
60 229 467
61 956 568
62 431 929
63 615 707
64 913 42
65 854 504
66 236 176
67 377 404
68 380 468
69 590 752
70 620 146
71 616 746
72 675 114
73 556 640
74 99 777
75 12 194
76 920 116
77 846 384
78 525 23
79 199 348
80 813 875
81 757 593
82 573 358
83 264 448
84 132 556
85 289 765
86 246 267
87 245 876
88 235 592
89 648 790
90 378 754
91 636 653
92 555 181
93 738 446
94 130 836
95 882 942
96 102 787
97 669 905
98 490 45
99 883 547
100 971 638
101 256 227
102 775 935
103 489 411
104 826 228
105 514 866
106 129 566
107 7 118
108 415 820
109 161 160
110 27 21
111 695 395
112 64 937
113 121 847
114 770 896
115 264 607
116 174 871
117 20 546
118 986 803
119 379 259
120 728 180
121 686 273
122 133 869
123 157 499
124 784 186
125 649 934
126 999 236
127 670 615
128 978 479
129 646 823
130 193 565
131 440 534
132 26 411
133 114 126
134 661 528
135 946 326
136 223 602
137 695 420
138 172 317
139 116 701
140 940 438
141 732 172
142 824 136
143 837 507
144 125 570
145 773 241
146 542 708
147 441 235
148 808 413
149 68 374
150 582 768
151 220 519
152 593 651
153 71 712
154 26 569
155 918 629
156 165 731
157 941 282
158 285 379
159 227 977
160 788 366
161 33 507
162 597 983
163 299 617
164 799 35
165 414 697
166 529 178
167 235 743
168 118 484
169 349 554
170 477 280
171 591 189
172 743 221
173 807 670
174 163 621
175 874 932
176 245 24
177 960 27
178 139 44
179 45 584
180 281 434
181 684 501
182 284 414
183 20 905
184 80 256
185 57 354
186 306 107
187 167 289
188 952 66
189 862 741
190 240 516
191 806 277
192 782 700
193 82 208
194 951 550
195 710 44
196 537 764
197 407 191
198 629 133
199 608 911
200 760 125
201 727 517
202 295 706
203 679 836
204 73 420
205 637 903
206 297 723
207 55 920
208 676 550
209 933 456
210 812 155
211 326 903
212 846 181
213 116 175
214 344 992
215 28 667
216 439 245
217 891 450
218 224 732
219 156 734
220 390 441
221 663 560
222 115 896
223 655 766
224 210 731
225 42 176
226 505 517
227 923 66
228 490 844
229 342 859
230 210 644
231 313 79
232 399 775
233 79 559
234 876 843
235 631 889
236 182 284
237 471 120
PICKUP_AND_DELIVERY_SECTION
1 0 0 1000000000 0 0 0
2 0 0 1000000000 0 0.2073 0.7927
3 0 0 1000000000 0 0.7991 0.2009
4 0 0 1000000000 0 0.6378 0.3622
5 0 0 1000000000 0 0.08254 0.9175
6 0 0 1000000000 0 0.5096 0.4904
7 0 0 1000000000 0 0.2735 0.7265
8 0 0 1000000000 0 0.1737 0.8263
9 0 0 1000000000 0 0.5609 0.4391
10 0 0 1000000000 0 0.9398 0.06024
11 0 0 1000000000 0 0.8709 0.1291
12 0 0 1000000000 0 0.02643 0.9736
13 0 0 1000000000 0 0.548 0.452
14 0 0 1000000000 0 0.9504 0.04963
15 0 0 1000000000 0 0.3251 0.6749
16 0 0 1000000000 0 0.6279 0.3721
17 0 0 1000000000 0 0.5767 0.4233
18 0 0 1000000000 0 0.1173 0.8827
19 0 0 1000000000 0 0.6788 0.3212
20 0 0 1000000000 0 0.7406 0.2594
21 0 0 1000000000 0 0.4443 0.5557
22 0 0 1000000000 0 0.6857 0.3143
23 0 0 1000000000 0 0.1372 0.8628
24 0 0 1000000000 0 0.1863 0.8137
25 0 0 1000000000 0 0.9035 0.09649
26 0 0 1000000000 0 0.986 0.01399
27 0 0 1000000000 0 0.3859 0.6141
28 0 0 1000000000 0 0.7024 0.2976
29 0 0 1000000000 0 0.9259 0.07407
30 0 0 1000000000 0 0.4055 0.5945
31 0 0 1000000000 0 0.9365 0.06354
32 0 0 1000000000 0 0.1569 0.8431
33 0 0 1000000000 0 0.3884 0.6116
34 0 0 1000000000 0 0.2588 0.7412
35 0 0 1000000000 0 0.7862 0.2138
36 0 0 1000000000 0 0.00768 0.9923
37 0 0 1000000000 0 0.5179 0.4821
38 0 0 1000000000 0 0.9662 0.03383
39 0 0 1000000000 0 0.9146 0.08537
40 0 0 1000000000 0 0.01533 0.9847
41 0 0 1000000000 0 0.8604 0.1396
42 0 0 1000000000 0 0.8391 0.1609
43 0 0 1000000000 0 0.7684 0.2316
44 0 0 1000000000 0 0.3831 0.6169
45 0 0 1000000000 0 0.9039 0.09612
46 0 0 1000000000 0 0.07486 0.9251
47 0 0 1000000000 0 0.8761 0.1239
48 0 0 1000000000 0 0.9023 0.09774
49 0 0 1000000000 0 0.5397 0.4603
50 0 0 1000000000 0 0.8296 0.1704
51 0 0 1000000000 0 0.374 0.626
52 0 0 1000000000 0 0.5058 0.4942
53 0 0 1000000000 0 0.8005 0.1995
54 0 0 1000000000 0 0.1236 0.8764
55 0 0 1000000000 0 0.2056 0.7944
56 0 0 1000000000 0 0.7387 0.2613
57 0 0 1000000000 0 0.01271 0.9873
58 0 0 1000000000 0 0.523 0.477
59 0 0 1000000000 0 0.1241 0.8759
60 0 0 1000000000 0 0.4904 0.5096
61 0 0 1000000000 0 0.5941 0.4059
62 0 0 1000000000 0 0.4639 0.5361
63 0 0 1000000000 0 0.8699 0.1301
64 0 0 1000000000 0 0.046 0.954
65 0 0 1000000000 0 0.5902 0.4098
66 0 0 1000000000 0 0.7458 0.2542
67 0 0 1000000000 0 0.9332 0.06683
68 0 0 1000000000 0 0.812 0.188
69 0 0 1000000000 0 0.7846 0.2154
70 0 0 1000000000 0 0.2355 0.7645
71 0 0 1000000000 0 0.8257 0.1743
72 0 0 1000000000 0 0.1689 0.8311
73 0 0 1000000000 0 0.8688 0.1312
74 0 0 1000000000 0 0.1274 0.8726
75 0 0 1000000000 0 0.06186 0.9381
76 0 0 1000000000 0 0.1261 0.8739
77 0 0 1000000000 0 0.4539 0.5461
78 0 0 1000000000 0 0.04381 0.9562
79 0 0 1000000000 0 0.5718 0.4282
80 0 0 1000000000 0 0.9291 0.07086
81 0 0 1000000000 0 0.7834 0.2166
82 0 0 1000000000 0 0.6248 0.3752
83 0 0 1000000000 0 0.5893 0.4107
84 0 0 1000000000 0 0.2374 0.7626
85 0 0 1000000000 0 0.3778 0.6222
86 0 0 1000000000 0 0.9213 0.07865
87 0 0 1000000000 0 0.2797 0.7203
88 0 0 1000000000 0 0.397 0.603
89 0 0 1000000000 0 0.8203 0.1797
90 0 0 1000000000 0 0.5013 0.4987
91 0 0 1000000000 0 0.974 0.02603
92 0 0 1000000000 0 0.3261 0.6739
93 0 0 1000000000 0 0.6043 0.3957
94 0 0 1000000000 0 0.1555 0.8445
95 0 0 1000000000 0 0.9363 0.06369
96 0 0 1000000000 0 0.1296 0.8704
97 0 0 1000000000 0 0.7392 0.2608
98 0 0 1000000000 0 0.09184 0.9082
99 0 0 1000000000 0 0.6195 0.3805
100 0 0 1000000000 0 0.6571 0.3429
101 0 0 1000000000 0 0.8867 0.1133
102 0 0 1000000000 0 0.8289 0.1711
103 0 0 1000000000 0 0.8405 0.1595
104 0 0 1000000000 0 0.276 0.724
105 0 0 1000000000 0 0.5935 0.4065
106 0 0 1000000000 0 0.2279 0.7721
107 0 0 1000000000 0 0.05932 0.9407
108 0 0 1000000000 0 0.5061 0.4939
109 0 0 1000000000 0 0.9938 0.00621
110 0 0 1000000000 0 0.7778 0.2222
111 0 0 1000000000 0 0.5683 0.4317
112 0 0 1000000000 0 0.0683 0.9317
113 0 0 1000000000 0 0.1429 0.8571
114 0 0 1000000000 0 0.8594 0.1406
115 0 0 1000000000 0 0.4349 0.5651
116 0 0 1000000000 0 0.1998 0.8002
117 0 0 1000000000 0 0.03663 0.9634
118 0 0 1000000000 0 0.8144 0.1856
119 0 0 1000000000 0 0.6834 0.3166
120 0 0 1000000000 0 0.2473 0.7527
121 0 0 1000000000 0 0.398 0.602
122 0 0 1000000000 0 0.153 0.847
123 0 0 1000000000 0 0.3146 0.6854
124 0 0 1000000000 0 0.2372 0.7628
125 0 0 1000000000 0 0.6949 0.3051
126 0 0 1000000000 0 0.2362 0.7638
127 0 0 1000000000 0 0.9179 0.08209
128 0 0 1000000000 0 0.4898 0.5102
129 0 0 1000000000 0 0.7849 0.2151
130 0 0 1000000000 0 0.3416 0.6584
131 0 0 1000000000 0 0.824 0.176
132 0 0 1000000000 0 0.06326 0.9367
133 0 0 1000000000 0 0.9048 0.09524
134 0 0 1000000000 0 0.7988 0.2012
135 0 0 1000000000 0 0.3446 0.6554
136 0 0 1000000000 0 0.3704 0.6296
137 0 0 1000000000 0 0.6043 0.3957
138 0 0 1000000000 0 0.5426 0.4574
139 0 0 1000000000 0 0.1655 0.8345
140 0 0 1000000000 0 0.466 0.534
141 0 0 1000000000 0 0.235 0.765
142 0 0 1000000000 0 0.165 0.835
143 0 0 1000000000 0 0.6057 0.3943
144 0 0 1000000000 0 0.2193 0.7807
145 0 0 1000000000 0 0.3118 0.6882
146 0 0 1000000000 0 0.7655 0.2345
147 0 0 1000000000 0 0.5329 0.4671
148 0 0 1000000000 0 0.5111 0.4889
149 0 0 1000000000 0 0.1818 0.8182
150 0 0 1000000000 0 0.7578 0.2422
151 0 0 1000000000 0 0.4239 0.5761
152 0 0 1000000000 0 0.9109 0.08909
153 0 0 1000000000 0 0.09972 0.9003
154 0 0 1000000000 0 0.04569 0.9543
155 0 0 1000000000 0 0.6852 0.3148
156 0 0 1000000000 0 0.2257 0.7743
157 0 0 1000000000 0 0.2997 0.7003
158 0 0 1000000000 0 0.752 0.248
159 0 0 1000000000 0 0.2323 0.7677
160 0 0 1000000000 0 0.4645 0.5355
161 0 0 1000000000 0 0.06509 0.9349
162 0 0 1000000000 0 0.6073 0.3927
163 0 0 1000000000 0 0.4846 0.5154
164 0 0 1000000000 0 0.0438 0.9562
165 0 0 1000000000 0 0.594 0.406
166 0 0 1000000000 0 0.3365 0.6635
167 0 0 1000000000 0 0.3163 0.6837
168 0 0 1000000000 0 0.2438 0.7562
169 0 0 1000000000 0 0.63 0.37
170 0 0 1000000000 0 0.587 0.413
171 0 0 1000000000 0 0.3198 0.6802
172 0 0 1000000000 0 0.2974 0.7026
173 0 0 1000000000 0 0.8302 0.1698
174 0 0 1000000000 0 0.2625 0.7375
175 0 0 1000000000 0 0.9378 0.06223
176 0 0 1000000000 0 0.09796 0.902
177 0 0 1000000000 0 0.02813 0.9719
178 0 0 1000000000 0 0.3165 0.6835
179 0 0 1000000000 0 0.07705 0.9229
180 0 0 1000000000 0 0.6475 0.3525
181 0 0 1000000000 0 0.7325 0.2675
182 0 0 1000000000 0 0.686 0.314
183 0 0 1000000000 0 0.0221 0.9779
184 0 0 1000000000 0 0.3125 0.6875
185 0 0 1000000000 0 0.161 0.839
186 0 0 1000000000 0 0.3497 0.6503
187 0 0 1000000000 0 0.5779 0.4221
188 0 0 1000000000 0 0.06933 0.9307
189 0 0 1000000000 0 0.8596 0.1404
190 0 0 1000000000 0 0.4651 0.5349
191 0 0 1000000000 0 0.3437 0.6563
192 0 0 1000000000 0 0.8951 0.1049
193 0 0 1000000000 0 0.3942 0.6058
194 0 0 1000000000 0 0.5783 0.4217
195 0 0 1000000000 0 0.06197 0.938
196 0 0 1000000000 0 0.7029 0.2971
197 0 0 1000000000 0 0.4693 0.5307
198 0 0 1000000000 0 0.2114 0.7886
199 0 0 1000000000 0 0.6674 0.3326
200 0 0 1000000000 0 0.1645 0.8355
201 0 0 1000000000 0 0.7111 0.2889
202 0 0 1000000000 0 0.4178 0.5822
203 0 0 1000000000 0 0.8122 0.1878
204 0 0 1000000000 0 0.1738 0.8262
205 0 0 1000000000 0 0.7054 0.2946
206 0 0 1000000000 0 0.4108 0.5892
207 0 0 1000000000 0 0.05978 0.9402
208 0 0 1000000000 0 0.8136 0.1864
209 0 0 1000000000 0 0.4887 0.5113
210 0 0 1000000000 0 0.1909 0.8091
211 0 0 1000000000 0 0.361 0.639
212 0 0 1000000000 0 0.2139 0.7861
213 0 0 1000000000 0 0.6629 0.3371
214 0 0 1000000000 0 0.3468 0.6532
215 0 0 1000000000 0 0.04198 0.958
216 0 0 1000000000 0 0.5581 0.4419
217 0 0 1000000000 0 0.5051 0.4949
218 0 0 1000000000 0 0.306 0.694
219 0 0 1000000000 0 0.2125 0.7875
220 0 0 1000000000 0 0.8844 0.1156
221 0 0 1000000000 0 0.8446 0.1554
222 0 0 1000000000 0 0.1283 0.8717
223 0 0 1000000000 0 0.8551 0.1449
224 0 0 1000000000 0 0.2873 0.7127
225 0 0 1000000000 0 0.2386 0.7614
226 0 0 1000000000 0 0.9768 0.02321
227 0 0 1000000000 0 0.07151 0.9285
228 0 0 1000000000 0 0.5806 0.4194
229 0 0 1000000000 0 0.3981 0.6019
230 0 0 1000000000 0 0.3261 0.6739
231 0 0 1000000000 0 0.2524 0.7476
232 0 0 1000000000 0 0.5148 0.4852
233 0 0 1000000000 0 0.1413 0.8587
234 0 0 1000000000 0 0.9623 0.03767
235 0 0 1000000000 0 0.7098 0.2902
236 0 0 1000000000 0 0.6408 0.3592
237 0 0 1000000000 0 0.2548 0.7452
